2023/05/23
Julia is now 1.9.0
previous version was 1.7.2
2023/11/29
gurobi is now 11.0.0
previous version was 10.0.2
solving instance knapsack 10 6 sqrt
feasible solution found by trivial heuristic after 0.0 seconds, objective value 0.000000e+00
presolving:
(round 1, fast)       10 del vars, 20 del conss, 0 add conss, 10 chg bounds, 0 chg sides, 0 chg coeffs, 0 upgd conss, 0 impls, 0 clqs
(round 2, fast)       10 del vars, 20 del conss, 0 add conss, 20 chg bounds, 0 chg sides, 0 chg coeffs, 0 upgd conss, 0 impls, 0 clqs
   (0.0s) symmetry computation started: requiring (bin +, int +, cont +), (fixed: bin -, int -, cont -)
   (0.0s) no symmetry present
presolving (3 rounds: 3 fast, 1 medium, 1 exhaustive):
 10 deleted vars, 20 deleted constraints, 0 added constraints, 20 tightened bounds, 0 added holes, 0 changed sides, 0 changed coefficients
 0 implications, 0 cliques
presolved problem has 20 variables (0 bin, 0 int, 0 impl, 20 cont) and 11 constraints
      1 constraints of type <linear>
     10 constraints of type <nonlinear>
Presolving Time: 0.00

 time | node  | left  |LP iter|LP it/n|mem/heur|mdpt |vars |cons |rows |cuts |sepa|confs|strbr|  dualbound   | primalbound  |  gap   | compl. 
t 0.0s|     1 |     0 |     0 |     - | trivial|   0 |  20 |  11 |   0 |   0 |  0 |   0 |   0 |-2.322823e+02 | 0.000000e+00 |    Inf | unknown
  0.0s|     1 |     0 |    41 |     - |  1058k |   0 |  40 |  11 |  41 |   0 |  0 |   0 |   0 |-2.106066e+02 | 0.000000e+00 |    Inf | unknown
L 0.0s|     1 |     0 |    41 |     - |undercov|   0 |  40 |  11 |  41 |   0 |  0 |   0 |   0 |-2.106066e+02 |-2.075103e+02 |   1.49%| unknown
L 0.0s|     1 |     0 |    41 |     - |undercov|   0 |  40 |  11 |  41 |   0 |  0 |   0 |   0 |-2.106066e+02 |-2.087704e+02 |   0.88%| unknown
  0.0s|     1 |     0 |    52 |     - |  1103k |   0 |  40 |  11 |  51 |  10 |  1 |   0 |   0 |-2.098173e+02 |-2.087704e+02 |   0.50%| unknown
  0.0s|     1 |     0 |    52 |     - |  1103k |   0 |  40 |  11 |  51 |  10 |  1 |   0 |   0 |-2.098173e+02 |-2.087704e+02 |   0.50%| unknown
  0.0s|     1 |     0 |    61 |     - |  1103k |   0 |  40 |  11 |  61 |  20 |  2 |   0 |   0 |-2.091364e+02 |-2.087704e+02 |   0.18%| unknown
  0.0s|     1 |     0 |    66 |     - |  1103k |   0 |  40 |  11 |  66 |  25 |  3 |   0 |   0 |-2.088337e+02 |-2.087704e+02 |   0.03%| unknown
  0.0s|     1 |     0 |    70 |     - |  1103k |   0 |  40 |  11 |  71 |  30 |  4 |   0 |   0 |-2.087925e+02 |-2.087704e+02 |   0.01%| unknown
  0.0s|     1 |     0 |    75 |     - |  1106k |   0 |  40 |  11 |  76 |  35 |  5 |   0 |   0 |-2.087740e+02 |-2.087704e+02 |   0.00%| unknown
  0.0s|     1 |     0 |    80 |     - |  1106k |   0 |  40 |  11 |  81 |  40 |  6 |   0 |   0 |-2.087717e+02 |-2.087704e+02 |   0.00%| unknown
  0.0s|     1 |     0 |    84 |     - |  1107k |   0 |  40 |  11 |  86 |  45 |  7 |   0 |   0 |-2.087708e+02 |-2.087704e+02 |   0.00%| unknown
  0.0s|     1 |     0 |    90 |     - |  1107k |   0 |  40 |  11 |  91 |  50 |  8 |   0 |   0 |-2.087704e+02 |-2.087704e+02 |   0.00%| unknown

SCIP Status        : solving was interrupted [gap limit reached]
Solving Time (sec) : 0.05
Solving Nodes      : 1
Primal Bound       : -2.08770357395044e+02 (7 solutions)
Dual Bound         : -2.08770419421046e+02
Gap                : 0.00 %
Min nlobj[1,1] + nlobj[1,2] + nlobj[1,3] + nlobj[1,4] + nlobj[1,5] + nlobj[1,6] + nlobj[1,7] + nlobj[1,8] + nlobj[1,9] + nlobj[1,10]
Subject to
 x[1,1] - 100 onoff[1,1] ≤ 0
 x[1,2] - 100 onoff[1,2] ≤ 0
 x[1,3] - 100 onoff[1,3] ≤ 0
 x[1,4] - 100 onoff[1,4] ≤ 0
 x[1,5] - 100 onoff[1,5] ≤ 0
 x[1,6] - 100 onoff[1,6] ≤ 0
 x[1,7] - 100 onoff[1,7] ≤ 0
 x[1,8] - 100 onoff[1,8] ≤ 0
 x[1,9] - 100 onoff[1,9] ≤ 0
 x[1,10] - 100 onoff[1,10] ≤ 0
 74 x[1,1] + 84 x[1,2] + x[1,3] + 77 x[1,4] + 72 x[1,5] + 97 x[1,6] + 65 x[1,7] + 69 x[1,8] + 59 x[1,9] + 63 x[1,10] ≤ 33050
 x[1,1] ≤ 100
 x[1,2] ≤ 100
 x[1,3] ≤ 100
 x[1,4] ≤ 100
 x[1,5] ≤ 100
 x[1,6] ≤ 100
 x[1,7] ≤ 100
 x[1,8] ≤ 100
 x[1,9] ≤ 100
 x[1,10] ≤ 100
 x[1,1] ≥ 0
 x[1,2] ≥ 0
 x[1,3] ≥ 0
 x[1,4] ≥ 0
 x[1,5] ≥ 0
 x[1,6] ≥ 0
 x[1,7] ≥ 0
 x[1,8] ≥ 0
 x[1,9] ≥ 0
 x[1,10] ≥ 0
 nlobj[1,1] ≥ -10000000000
 nlobj[1,2] ≥ -10000000000
 nlobj[1,3] ≥ -10000000000
 nlobj[1,4] ≥ -10000000000
 nlobj[1,5] ≥ -10000000000
 nlobj[1,6] ≥ -10000000000
 nlobj[1,7] ≥ -10000000000
 nlobj[1,8] ≥ -10000000000
 nlobj[1,9] ≥ -10000000000
 nlobj[1,10] ≥ -10000000000
 x[1,1] ≤ 100
 x[1,2] ≤ 100
 x[1,3] ≤ 100
 x[1,4] ≤ 100
 x[1,5] ≤ 100
 x[1,6] ≤ 100
 x[1,7] ≤ 100
 x[1,8] ≤ 100
 x[1,9] ≤ 100
 x[1,10] ≤ 100
 nlobj[1,1] ≤ 10000000000
 nlobj[1,2] ≤ 10000000000
 nlobj[1,3] ≤ 10000000000
 nlobj[1,4] ≤ 10000000000
 nlobj[1,5] ≤ 10000000000
 nlobj[1,6] ≤ 10000000000
 nlobj[1,7] ≤ 10000000000
 nlobj[1,8] ≤ 10000000000
 nlobj[1,9] ≤ 10000000000
 nlobj[1,10] ≤ 10000000000
 onoff[1,1] binary
 onoff[1,2] binary
 onoff[1,3] binary
 onoff[1,4] binary
 onoff[1,5] binary
 onoff[1,6] binary
 onoff[1,7] binary
 onoff[1,8] binary
 onoff[1,9] binary
 onoff[1,10] binary
 (subexpression[1] - nlobj[1,1]) - 0.0 ≤ 0
 (subexpression[2] - nlobj[1,2]) - 0.0 ≤ 0
 (subexpression[3] - nlobj[1,3]) - 0.0 ≤ 0
 (subexpression[4] - nlobj[1,4]) - 0.0 ≤ 0
 (subexpression[5] - nlobj[1,5]) - 0.0 ≤ 0
 (subexpression[6] - nlobj[1,6]) - 0.0 ≤ 0
 (subexpression[7] - nlobj[1,7]) - 0.0 ≤ 0
 (subexpression[8] - nlobj[1,8]) - 0.0 ≤ 0
 (subexpression[9] - nlobj[1,9]) - 0.0 ≤ 0
 (subexpression[10] - nlobj[1,10]) - 0.0 ≤ 0
With NL expressions
 subexpression[1]: -1.0 * 6.627183400716728 * (0.01 * x[1,1]) ^ 0.5
 subexpression[2]: -1.0 * 48.346830960902814 * (0.01 * x[1,2]) ^ 0.5
 subexpression[3]: -1.0 * 7.927662036123479 * (0.01 * x[1,3]) ^ 0.5
 subexpression[4]: -1.0 * 38.83017972032126 * (0.01 * x[1,4]) ^ 0.5
 subexpression[5]: -1.0 * 1.5889876942856036 * (0.01 * x[1,5]) ^ 0.5
 subexpression[6]: -1.0 * 4.438799275583277 * (0.01 * x[1,6]) ^ 0.5
 subexpression[7]: -1.0 * 63.12648331582407 * (0.01 * x[1,7]) ^ 0.5
 subexpression[8]: -1.0 * 13.833656182734007 * (0.01 * x[1,8]) ^ 0.5
 subexpression[9]: -1.0 * 13.47432383153082 * (0.01 * x[1,9]) ^ 0.5
 subexpression[10]: -1.0 * 34.08811983759872 * (0.01 * x[1,10]) ^ 0.5

primal_bound = -208.77035739504404, dual_bound = -208.77041942104594, gap = 2.971014862694289e-5, time = 3.21
